34 30
43 26
48 14
11 4
10 42
11 20
32 38
43 2
5 34
22 36
47 21
45 46
38 8
7 45
12 28
37 32
29 48
27 10
18 35
43 48
29 42
50 44
40 32
4 31
47 26
9 14
33 27
3 5
38 29
48 16
46 47
29 27
42 11
6 12
27 29
27 45
14 5
8 4
41 26
9 47
50 9
33 3
41 3
15 1
11 7
26 28
27 20
21 49
21 17
43 19
42 31
26 32
40 39
9 38
20 27
23 44
2 41
25 8
1 37
45 22
